GeneratedTests/Random_9/Random_9_2.tsp
NAME: Random_9_2
TYPE: TSP
DIMENSION: 9
EDGE_WEIGHT_TYPE: EUC_2D
NODE_COORD_SECTION
1 22.235817 19.671453
2 8.586925 10.454464
3 5.369846 11.039439
4 3.4515138 23.929296
5 22.07212 3.274982
6 7.111939 24.566582
7 13.437336 4.7395263
8 10.720944 20.31192
9 0.14692819 25.492325
EOF
