GeneratedTests/Random_9/Random_9_2.txt
NAME: Random_9_2
TYPE: TSP
DIMENSION: 9
EDGE_WEIGHT_TYPE: EUC_2D
NODE_COORD_SECTION
1 11.409818 24.025028
2 5.0703583 17.32772
3 13.749737 20.783676
4 10.523046 26.26386
5 20.492512 26.032734
6 16.901218 12.334739
7 14.137269 24.94975
8 17.739817 7.602754
9 16.300358 24.772667
EOF
